set VV := 0 1 2 3 4 5 6 7 8 9 10 11 12 13 ;
set VS := 0 1 2 3 4 5 6 7 8 9 10 11 12 13 14 15 16 17 18 19 20 21 22 23 24 25 26 27 28 29 30 31 32 ;
param cv := 
0 23
1 13
2 14
3 18
4 15
5 11
6 25
7 24
8 22
9 19
10 11
11 23
12 13
13 16
;
param cs := 
0 21
1 36
2 37
3 40
4 21
5 20
6 32
7 29
8 26
9 30
10 37
11 30
12 37
13 35
14 28
15 33
16 29
17 27
18 25
19 26
20 28
21 26
22 25
23 21
24 27
25 38
26 23
27 32
28 38
29 20
30 39
31 25
32 34
;
param bv:	 0 1 2 3 4 5 6 7 8 9 10 11 12 13 := 
		0 0 0 0 0 0 13 0 0 0 0 0 0 17 0 
		1 0 0 0 16 0 0 0 0 0 0 0 24 0 0 
		2 0 0 0 0 0 17 0 0 0 0 0 12 0 0 
		3 0 0 0 0 0 0 0 0 0 0 0 0 0 19 
		4 0 0 0 0 0 0 0 0 0 0 0 0 0 20 
		5 0 0 0 0 0 0 0 0 0 23 0 0 0 12 
		6 0 0 0 0 0 0 0 0 0 0 15 0 0 0 
		7 0 0 0 0 0 0 0 0 0 0 0 0 25 0 
		8 0 0 0 0 0 0 0 0 0 0 0 0 24 0 
		9 0 0 0 0 0 0 0 0 0 0 11 0 0 11 
		10 0 0 0 0 0 0 0 0 0 0 0 0 0 0 
		11 0 0 0 0 0 0 0 0 0 0 0 0 0 0 
		12 0 0 0 0 0 0 0 0 0 0 0 0 0 0 
		13 0 0 0 0 0 0 0 0 0 0 0 0 0 0 
;
param bs:	 0 1 2 3 4 5 6 7 8 9 10 11 12 13 14 15 16 17 18 19 20 21 22 23 24 25 26 27 28 29 30 31 32 := 
		0 0 0 0 0 0 0 0 27 0 0 33 0 27 22 0 0 0 0 0 0 0 0 0 0 0 23 0 0 0 0 0 0 38 
		1 0 0 0 0 0 0 0 0 0 0 0 0 0 0 0 0 0 0 0 0 0 0 22 0 0 24 0 0 0 0 0 0 0 
		2 0 0 0 0 21 0 28 0 0 37 0 0 0 0 0 0 0 0 0 31 0 0 0 0 0 0 0 0 40 0 0 0 0 
		3 0 0 0 0 0 0 25 0 22 0 0 0 0 0 0 0 0 0 0 0 0 0 0 0 0 0 0 0 0 0 0 0 0 
		4 0 0 21 0 0 21 0 0 0 39 0 0 38 0 0 0 0 0 0 0 0 0 0 0 0 0 0 25 0 0 39 0 0 
		5 0 0 0 0 21 0 34 0 0 0 0 0 0 0 0 0 35 0 0 0 0 0 25 21 0 20 0 0 0 29 0 37 0 
		6 0 0 28 25 0 34 0 0 0 0 0 0 0 0 0 0 28 0 0 0 26 0 0 0 28 0 0 0 0 0 26 0 0 
		7 27 0 0 0 0 0 0 0 0 21 0 0 40 0 0 0 0 0 0 0 0 0 0 0 0 0 0 0 20 0 0 0 24 
		8 0 0 0 22 0 0 0 0 0 34 0 0 0 0 0 0 0 0 0 0 0 0 0 0 0 0 0 0 21 0 0 0 0 
		9 0 0 37 0 39 0 0 21 34 0 26 0 37 0 0 0 0 40 30 0 0 0 0 0 0 0 0 0 0 0 23 0 0 
		10 33 0 0 0 0 0 0 0 0 26 0 0 0 0 0 26 0 0 0 0 0 0 0 0 38 0 0 0 0 0 22 0 0 
		11 0 0 0 0 0 0 0 0 0 0 0 0 0 0 0 0 0 0 0 0 0 0 0 40 0 35 0 0 0 28 0 0 39 
		12 27 0 0 0 38 0 0 40 0 37 0 0 0 0 0 26 0 25 0 0 0 0 0 0 0 0 40 0 34 26 0 0 0 
		13 22 0 0 0 0 0 0 0 0 0 0 0 0 0 0 0 0 0 25 0 0 0 0 0 0 34 0 0 31 0 0 33 0 
		14 0 0 0 0 0 0 0 0 0 0 0 0 0 0 0 0 20 26 0 0 0 0 0 21 0 0 0 0 0 0 0 23 22 
		15 0 0 0 0 0 0 0 0 0 0 26 0 26 0 0 0 0 0 0 0 24 21 0 0 0 0 0 0 0 0 0 0 39 
		16 0 0 0 0 0 35 28 0 0 0 0 0 0 0 20 0 0 0 0 0 0 0 31 0 0 0 0 0 0 0 0 0 0 
		17 0 0 0 0 0 0 0 0 0 40 0 0 25 0 26 0 0 0 0 0 0 0 0 0 0 0 0 36 0 0 31 0 24 
		18 0 0 0 0 0 0 0 0 0 30 0 0 0 25 0 0 0 0 0 0 0 0 0 0 0 0 0 38 0 0 0 0 0 
		19 0 0 31 0 0 0 0 0 0 0 0 0 0 0 0 0 0 0 0 0 0 0 0 0 0 0 33 25 28 38 0 0 0 
		20 0 0 0 0 0 0 26 0 0 0 0 0 0 0 0 24 0 0 0 0 0 0 0 37 0 0 0 0 0 0 34 0 0 
		21 0 0 0 0 0 0 0 0 0 0 0 0 0 0 0 21 0 0 0 0 0 0 0 0 0 0 21 0 0 0 0 0 0 
		22 0 22 0 0 0 25 0 0 0 0 0 0 0 0 0 0 31 0 0 0 0 0 0 25 0 0 0 0 0 0 0 0 40 
		23 0 0 0 0 0 21 0 0 0 0 0 40 0 0 21 0 0 0 0 0 37 0 25 0 0 0 21 0 0 0 0 0 23 
		24 0 0 0 0 0 0 28 0 0 0 38 0 0 0 0 0 0 0 0 0 0 0 0 0 0 0 0 0 0 0 0 0 0 
		25 23 24 0 0 0 20 0 0 0 0 0 35 0 34 0 0 0 0 0 0 0 0 0 0 0 0 0 23 0 0 0 0 0 
		26 0 0 0 0 0 0 0 0 0 0 0 0 40 0 0 0 0 0 0 33 0 21 0 21 0 0 0 40 0 0 0 0 0 
		27 0 0 0 0 25 0 0 0 0 0 0 0 0 0 0 0 0 36 38 25 0 0 0 0 0 23 40 0 28 0 0 0 0 
		28 0 0 40 0 0 0 0 20 21 0 0 0 34 31 0 0 0 0 0 28 0 0 0 0 0 0 0 28 0 0 0 0 28 
		29 0 0 0 0 0 29 0 0 0 0 0 28 26 0 0 0 0 0 0 38 0 0 0 0 0 0 0 0 0 0 0 0 0 
		30 0 0 0 0 39 0 26 0 0 23 22 0 0 0 0 0 0 31 0 0 34 0 0 0 0 0 0 0 0 0 0 30 0 
		31 0 0 0 0 0 37 0 0 0 0 0 0 0 33 23 0 0 0 0 0 0 0 0 0 0 0 0 0 0 0 30 0 36 
		32 38 0 0 0 0 0 0 24 0 0 0 39 0 0 22 39 0 24 0 0 0 0 40 23 0 0 0 0 28 0 0 36 0 
;
